# Objective value = 95602
x66 1
x67 0
x68 0
x69 0
x70 0
x71 1
x72 0
x73 0
x74 1
x75 1
x76 0
x77 0
x78 1
x79 1
x80 1
x81 0
x82 0
x83 1
x84 1
x85 1
x86 1
x87 1
x88 1
x89 0
x90 0
x91 0
x92 0
x93 0
x94 0
x95 0
x96 1
x97 1
x98 1
x99 1
x100 1
x101 0
x102 0
x103 0
x104 1
x105 1
x106 1
x107 1
x108 1
x109 0
x110 1
x111 0
x112 0
x113 1
x114 1
x115 1
x116 1
x117 1
x118 0
x119 1
x120 1
x121 0
x122 0
x123 1
x124 1
x125 1
x126 1
x127 1
x128 0
x129 1
x130 1
x131 1
x132 1
x133 1
x134 0
x135 0
x136 0
x137 0
x138 0
x139 1
x140 0
x141 0
x142 0
x143 0
x144 0
x145 0
x146 1
x147 1
x148 1
x149 1
x150 1
x151 0
x152 1
x153 1
x154 1
x155 1
x156 0
x157 1
x158 1
x159 0
x160 0
x161 0
x162 0
x163 0
x164 1
x165 0
x166 0
x167 0
x168 0
x169 1
x170 0
x171 0
x172 0
x173 1
x174 1
x175 1
x176 1
x177 1
x178 0
x179 1
x180 1
x181 1
x182 1
x183 0
x184 1
x185 0
x186 0
x187 0
x188 1
x189 1
x190 1
x191 1
x192 1
x193 0
x194 1
x195 1
x196 1
x197 1
x198 0
x199 1
x200 0
x201 1
x202 0
x203 0
x204 1
x205 1
x206 1
x207 1
x208 1
x209 1
x210 1
x211 0
x212 0
x213 0
x214 0
x215 1
x216 0
x217 0
x218 0
x219 1
x220 1
x221 1
x222 1
x223 1
x224 1
x225 0
x226 0
x227 0
x228 1
x229 1
x230 1
x231 0
x232 1
x233 1
x234 0
x235 1
x236 0
x237 1
x238 1
x239 0
x240 1
x241 1
x242 1
x243 1
x244 0
x245 1
x246 1
x247 0
x248 1
x249 1
x250 0
x251 1
x252 1
x253 0
x254 1
x255 0
x256 1
x257 1
x258 1
x259 0
x260 1
x261 1
x262 0
x263 1
x264 1
x265 1
x266 1
x267 0
x268 1
x269 1
x270 1
x271 1
x272 1
x273 0
x274 0
x275 1
x276 0
x277 1
x278 0
x279 0
x280 1
x281 0
x282 0
x283 0
x284 0
x285 0
x286 0
x287 0
x288 1
x289 1
x290 1
x291 1
x292 0
x293 1
x294 0
x295 1
x296 1
x297 1
x298 1
x299 1
x300 0
x301 0
x302 1
x303 1
x304 1
x305 1
x306 1
x307 0
x308 1
x309 0
x310 1
x311 1
x312 1
x313 1
x314 1
x315 0
x316 1
x317 1
x318 0
x319 1
x320 0
x321 0
x322 0
x323 1
x324 0
x325 1
x326 0
x327 0
x328 0
x329 0
x330 0
x331 1
x332 0
x333 0
x334 0
x335 1
x336 1
x337 1
x338 1
x339 1
x340 0
x341 1
x342 0
x343 1
x344 1
x345 1
x346 1
x347 1
x348 0
x349 1
x350 1
x351 0
x352 1
x353 1
x354 0
x355 0
x356 1
x357 0
x358 0
x359 0
x360 1
x361 0
x362 0
x363 0
x364 0
x365 0
x366 1
x367 0
x368 0
x369 1
x370 0
x371 0
x372 1
x373 1
x374 1
x375 0
x376 1
x377 1
x378 1
x379 0
x380 1
x381 1
x382 1
x383 1
x384 1
x385 0
x386 1
x387 1
x388 0
x389 1
x390 0
x391 0
x392 1
x393 0
x394 1
x395 0
x396 1
x397 1
x398 1
x399 0
x400 1
x401 1
x402 1
x403 1
x404 1
x405 0
x406 1
x407 1
x408 0
x409 1
x410 0
x411 1
x412 0
x413 1
x414 1
x415 1
x416 0
x417 1
x418 1
x419 1
x420 0
x421 1
x422 1
x423 1
x424 1
x425 1
x426 0
x427 1
x428 1
x429 0
x430 1
x431 0
x432 1
x433 1
x434 0
x435 0
x436 1
x437 1
x438 1
x439 1
x440 1
x441 0
x442 1
x443 1
x444 1
x445 0
x446 0
x447 1
x448 1
x449 1
x450 1
x451 1
x452 0
x453 1
x454 1
x455 1
x456 1
x457 0
x458 0
x459 1
x460 1
x461 1
x462 0
x463 1
x464 0
x465 1
x466 1
x467 1
x468 1
x469 1
x470 1
x471 1
x472 0
x473 0
x474 0
x475 0
x476 0
x477 1
x478 0
x479 0
x480 1
x481 0
x482 0
x483 0
x484 1
x485 1
x486 0
x487 0
x488 1
x489 0
x490 0
x491 0
x492 0
x493 0
x494 1
x495 0
x496 0
x497 0
x498 1
x499 0
x500 1
x501 1
x502 1
x503 0
x504 1
x505 0
x506 1
x507 1
x508 1
x509 0
x510 1
x511 1
x512 1
x513 0
x514 0
x515 0
x516 1
x517 1
x518 1
x519 0
x520 1
x521 1
x522 1
x523 1
x524 1
x525 0
x526 1
x527 1
x528 1
x529 0
x530 0
x531 1
x532 0
x533 1
x534 1
x535 1
x536 0
x537 1
x538 1
x539 1
x540 1
x541 1
x542 0
x543 1
x544 1
x545 1
x546 0
x547 0
x548 1
x549 1
x550 0
x551 1
x552 1
x553 1
x554 0
x555 1
x556 1
x557 1
x558 0
x559 1
x560 0
x561 1
x562 1
x563 1
x564 0
x565 0
x566 1
x567 1
x568 1
x569 1
x570 0
x571 0
x572 0
x573 1
x574 1
x575 0
x576 0
x577 1
x578 0
x579 0
x580 0
x581 0
x582 0
x583 1
x584 1
x585 0
x586 0
x587 0
x588 0
x589 0
x590 1
x591 1
x592 1
x593 0
x594 1
x595 1
x596 1
x597 0
x598 1
x599 1
x600 1
x601 1
x602 1
x603 0
x604 0
x605 1
x606 1
x607 1
x608 1
x609 0
x610 0
x611 1
x612 1
x613 1
x614 0
x615 1
x616 1
x617 1
x618 0
x619 1
x620 1
x621 1
x622 1
x623 1
x624 0
x625 0
x626 1
x627 1
x628 1
x629 1
x630 0
x631 1
x632 0
x633 1
x634 1
x635 0
x636 1
x637 1
x638 1
x639 0
x640 1
x641 1
x642 1
x643 1
x644 1
x645 1
x646 0
x647 0
x648 1
x649 1
x650 1
x651 1
x652 0
x653 1
x654 1
x655 0
x656 1
x657 1
x658 0
x659 1
x660 1
x661 1
x662 0
x663 1
x664 1
x665 1
x666 1
x667 1
x668 1
x669 0
x670 0
x671 1
x672 1
x673 1
x674 1
x675 0
x676 1
x677 1
x678 1
x679 1
x680 0
x681 0
x682 1
x683 0
x684 0
x685 1
x686 1
x687 0
x688 0
x689 0
x690 0
x691 0
x692 0
x693 1
x694 1
x695 0
x696 0
x697 0
x698 0
x699 1
x700 0
x701 0
x702 0
x703 0
x704 0
x705 0
x706 1
x707 0
x708 1
x709 1
x710 1
x711 0
x712 1
x713 1
x714 1
x715 1
x716 1
x717 1
x718 0
x719 0
x720 1
x721 1
x722 1
x723 1
x724 0
x725 1
x726 1
x727 1
x728 1
x729 0
x730 0
x731 0
x732 1
x733 1
x734 1
x735 1
x736 1
x737 0
x738 1
x739 1
x740 1
x741 1
x742 1
x743 1
x744 0
x745 1
x746 1
x747 0
x748 0
x749 1
x750 1
x751 1
x752 1
x753 1
x754 0
x755 1
x756 1
x757 1
x758 1
x759 1
x760 1
x761 0
x762 0
x763 1
x764 1
x765 1
x766 1
x767 0
x768 0
x769 0
x770 1
x771 0
x772 1
x773 0
x774 0
x775 0
x776 0
x777 0
x778 0
x779 1
x780 0
x781 1
x782 0
x783 0
x784 0
x785 0
x786 1
x787 1
x788 1
x789 1
x790 1
x791 0
x792 1
x793 1
x794 0
x795 1
x796 1
x797 1
x798 0
x799 1
x800 1
x801 1
x802 1
x803 0
x804 0
x805 0
x806 1
x807 1
x808 0
x809 1
x810 1
x811 1
x812 1
x813 1
x814 0
x815 0
x816 1
x817 1
x818 1
x819 1
x820 1
x821 1
x822 1
x823 0
x824 1
x825 1
x826 0
x827 0
x828 0
x829 1
x830 0
x831 1
x832 0
x833 0
x834 0
x835 1
x836 1
x837 0
x838 0
x839 0
x840 1
x841 0
x842 0
x843 0
x844 1
x845 0
x846 0
x847 0
x848 1
x849 1
x850 1
x851 0
x852 1
x853 1
x854 1
x855 1
x856 1
x857 0
x858 0
x859 1
x860 1
x861 1
x862 1
x863 0
x864 1
x865 1
x866 0
x867 1
x868 1
x869 0
x870 0
x871 1
x872 1
x873 1
x874 0
x875 1
x876 1
x877 1
x878 1
x879 1
x880 0
x881 0
x882 1
x883 1
x884 1
x885 1
x886 1
x887 1
x888 1
x889 0
x890 1
x891 1
x892 0
x893 1
x894 1
x895 0
x896 0
x897 0
x898 1
x899 0
x900 0
x901 0
x902 1
x903 0
x904 1
x905 0
x906 1
x907 0
x908 1
x909 0
x910 0
x911 0
x912 0
x913 1
x914 0
x915 0
x916 1
x917 0
x918 0
x919 0
x920 1
x921 1
x922 1
x923 0
x924 0
x925 1
x926 1
x927 0
x928 1
x929 1
x930 1
x931 1
x932 1
x933 0
x934 1
x935 1
x936 1
x937 1
x938 0
x939 1
x940 1
x941 0
x942 1
x943 1
x944 0
x945 0
x946 1
x947 1
x948 1
x949 0
x950 1
x951 1
x952 1
x953 0
x954 1
x955 1
x956 1
x957 1
x958 1
x959 0
x960 1
x961 1
x962 1
x963 1
x964 0
x965 1
x966 1
x967 0
x968 1
x969 1
x970 0
x971 1
x972 0
x973 1
x974 1
x975 1
x976 0
x977 1
x978 1
x979 1
x980 0
x981 1
x982 1
x983 0
x984 1
x985 1
x986 0
x987 1
x988 1
x989 1
x990 1
x991 0
x992 1
x993 1
x994 0
x995 1
x996 1
x997 0
x998 1
x999 1
x1000 0
x1001 1
x1002 1
x1003 0
x1004 1
x1005 1
x1006 1
x1007 0
x1008 1
x1009 1
x1010 1
x1011 1
x1012 0
x1013 1
x1014 1
x1015 0
x1016 1
x1017 1
x1018 1
x1019 0
x1020 1
x1021 1
x1022 0
x1023 1
x1024 1
x1025 0
x1026 1
x1027 1
x1028 1
x1029 0
x1030 1
x1031 1
x1032 0
x1033 1
x1034 1
x1035 1
x1036 0
x1037 1
x1038 1
x1039 1
x1040 1
x1041 1
x1042 1
x1043 1
x1044 0
x1045 1
x1046 1
x1047 1
x1048 0
x1049 1
x1050 1
x1051 0
x1052 1
x1053 1
x1054 0
x1055 1
x1056 1
x1057 1
x1058 1
x1059 0
x1060 1
x1061 1
x1062 0
x1063 1
x1064 1
x1065 0
x1066 0
x1067 1
x1068 1
x1069 1
x1070 1
x1071 1
x1072 1
x1073 1
x1074 0
x1075 1
x1076 1
x1077 1
x1078 0
x1079 1
x1080 1
x1081 0
x1082 1
x1083 1
x1084 0
x1085 1
x1086 1
x1087 1
x1088 1
x1089 1
x1090 1
x1091 1
x1092 0
x1093 1
x1094 0
x1095 0
x1096 0
x1097 1
x1098 0
x1099 0
x1100 0
x1101 1
x1102 0
x1103 0
x1104 0
x1105 1
x1106 0
x1107 0
x1108 0
x1109 1
x1110 0
x1111 0
x1112 1
x1113 0
x1114 0
x1115 1
x1116 0
x1117 0
x1118 0
x1119 0
x1120 0
x1121 0
x1 1
x2 1
x3 0
x4 0
x5 0
x6 0
x7 0
x8 1
x9 0
x10 0
x11 0
x12 0
x13 1
x14 0
x15 1
x16 0
x17 0
x18 0
x19 1
x20 0
x21 0
x22 0
x23 0
x24 0
x25 1
x26 0
x27 0
x28 1
x29 0
x30 1
x31 0
x32 0
x33 0
x34 0
x35 0
x36 0
x37 1
x38 1
x39 0
x40 0
x41 0
x42 0
x43 1
x44 0
x45 0
x46 0
x47 0
x48 1
x49 0
x50 0
x51 0
x52 1
x53 0
x54 0
x55 1
x56 0
x57 0
x58 1
x59 0
x60 0
x61 0
x62 0
x63 0
x64 0
x65 1
